100
128
23
13
13
18
22
8
3
1
10
23
4
42
20
9
42
9
4
20
61
13
8
4
30
17
23
54
1
23
4
5
36
21
2
12
50
9
23
17
14
11
1
27
53
23
23
4
30
25
17
33
8
61
5
46
1
17
8
46
4
53
4
43
2
48
47
3
4
51
1
57
49
54
52
55
5
8
53
47
16
15
62
39
2
16
36
18
56
31
49
32
52
3
5
26
30
7
33
30
64
9